qbf_easy_train/easy_5020_SAT.qdimacs
p cnf 20 44
a 9 2 15 0
e 1 3 4 5 6 7 8 10 11 12 13 14 16 17 18 19 20 0
4 -2 0
4 3 0
2 -3 -4 0
-5 -4 0
-5 -2 0
4 2 5 0
-1 5 -6 0
1 -5 -6 0
-1 -5 6 0
1 5 6 0
7 6 0
7 4 0
-6 -4 -7 0
11 -9 0
11 -10 0
9 10 -11 0
12 -8 0
12 11 0
8 -11 -12 0
7 12 -13 0
-7 -12 -13 0
7 -12 13 0
-7 12 13 0
-5 1 -14 0
5 -1 -14 0
-5 -1 14 0
5 1 14 0
-16 14 0
-16 -15 0
-14 15 16 0
18 9 0
18 -17 0
-9 17 -18 0
19 16 0
19 -18 0
-16 18 -19 0
-20 -13 0
-20 19 0
13 -19 20 0
5 7 -11 -10 13 0
4 -8 17 0
18 -3 -13 0
-17 -13 14 0
20 0
