sat_easy_train/easy_5020_SAT.dimacs
p cnf 135 466
2 1 0
2 1 0
-1 -2 0
2 3 -4 0
-2 -3 -4 0
2 -3 4 0
-2 3 4 0
-7 -5 0
-7 -6 0
5 6 7 0
8 4 0
8 7 0
-4 -7 -8 0
-10 -5 -11 0
10 5 -11 0
-10 5 11 0
10 -5 11 0
9 11 -12 0
-9 -11 -12 0
9 -11 12 0
-9 11 12 0
2 12 -13 0
-2 -12 -13 0
2 -12 13 0
-2 12 13 0
14 -12 0
14 13 0
12 -13 -14 0
-8 14 -15 0
8 -14 -15 0
-8 -14 15 0
8 14 15 0
2 16 -17 0
-2 -16 -17 0
2 -16 17 0
-2 16 17 0
18 17 0
18 -3 0
-17 3 -18 0
19 15 0
19 18 0
-15 -18 -19 0
21 20 0
21 6 0
-20 -6 -21 0
-22 -21 0
-22 -9 0
21 9 22 0
23 24 -25 0
-23 -24 -25 0
23 -24 25 0
-23 24 25 0
-10 20 -26 0
10 -20 -26 0
-10 -20 26 0
10 20 26 0
27 17 0
27 26 0
-17 -26 -27 0
25 27 -28 0
-25 -27 -28 0
25 -27 28 0
-25 27 28 0
28 29 -30 0
-28 -29 -30 0
28 -29 30 0
-28 29 30 0
-31 23 0
-31 30 0
-23 -30 31 0
32 -31 0
32 -12 0
31 12 -32 0
33 20 0
33 -29 0
-20 29 -33 0
-35 -34 0
-35 24 0
34 -24 35 0
-36 35 0
-36 -5 0
-35 5 36 0
7 36 -37 0
-7 -36 -37 0
7 -36 37 0
-7 36 37 0
38 -37 0
38 -26 0
37 26 -38 0
39 33 0
39 -38 0
-33 38 -39 0
-40 32 0
-40 -39 0
-32 39 40 0
-22 40 -41 0
22 -40 -41 0
-22 -40 41 0
22 40 41 0
42 35 0
42 9 0
-35 -9 -42 0
-43 35 0
-43 -9 0
-35 9 43 0
44 42 0
44 -43 0
-42 43 -44 0
-46 -45 0
-46 5 0
45 -5 46 0
-20 46 -47 0
20 -46 -47 0
-20 -46 47 0
20 46 47 0
47 7 -48 0
-47 -7 -48 0
47 -7 48 0
-47 7 48 0
51 -50 0
51 9 0
50 -9 -51 0
-52 49 0
-52 -51 0
-49 51 52 0
53 -48 0
53 52 0
48 -52 -53 0
-54 44 0
-54 -53 0
-44 53 54 0
41 54 -55 0
-41 -54 -55 0
41 -54 55 0
-41 54 55 0
-56 -2 0
-56 -11 0
2 11 56 0
57 -31 0
57 -56 0
31 56 -57 0
55 -57 -58 0
-55 57 -58 0
55 57 58 0
-55 -57 58 0
-48 20 -59 0
48 -20 -59 0
-48 -20 59 0
48 20 59 0
60 59 0
60 9 0
-59 -9 -60 0
-61 -6 0
-61 60 0
6 -60 61 0
-62 50 0
-62 -26 0
-50 26 62 0
61 -62 -63 0
-61 62 -63 0
61 62 63 0
-61 -62 63 0
-49 -29 -64 0
49 29 -64 0
-49 29 64 0
49 -29 64 0
-64 -5 -65 0
64 5 -65 0
-64 5 65 0
64 -5 65 0
66 46 0
66 2 0
-46 -2 -66 0
-67 -65 0
-67 66 0
65 -66 67 0
63 67 -68 0
-63 -67 -68 0
63 -67 68 0
-63 67 68 0
-23 -6 -69 0
23 6 -69 0
-23 6 69 0
23 -6 69 0
65 -50 -70 0
-65 50 -70 0
65 50 70 0
-65 -50 70 0
6 -70 -71 0
-6 70 -71 0
6 70 71 0
-6 -70 71 0
72 69 0
72 -71 0
-69 71 -72 0
-73 68 0
-73 -72 0
-68 72 73 0
-74 -16 0
-74 20 0
16 -20 74 0
-75 -74 0
-75 -46 0
74 46 75 0
-73 -75 -76 0
73 75 -76 0
-73 75 76 0
73 -75 76 0
-77 -16 0
-77 -21 0
16 21 77 0
-78 76 0
-78 -77 0
-76 77 78 0
-79 5 0
-79 16 0
-5 -16 79 0
-79 52 -80 0
79 -52 -80 0
-79 -52 80 0
79 52 80 0
-81 78 0
-81 80 0
-78 -80 81 0
-58 -81 -82 0
58 81 -82 0
-58 81 82 0
58 -81 82 0
83 19 0
83 -82 0
-19 82 -83 0
84 -70 0
84 16 0
70 -16 -84 0
85 -45 0
85 -84 0
45 84 -85 0
86 24 0
86 -4 0
-24 4 -86 0
-1 -62 -87 0
1 62 -87 0
-1 62 87 0
1 -62 87 0
-6 -21 -88 0
6 21 -88 0
-6 21 88 0
6 -21 88 0
-87 -88 -89 0
87 88 -89 0
-87 88 89 0
87 -88 89 0
90 86 0
90 -89 0
-86 89 -90 0
-46 -10 -91 0
46 10 -91 0
-46 10 91 0
46 -10 91 0
91 27 -92 0
-91 -27 -92 0
91 -27 92 0
-91 27 92 0
-93 -9 0
-93 48 0
9 -48 93 0
95 16 0
95 94 0
-16 -94 -95 0
-96 -93 0
-96 -95 0
93 95 96 0
-97 -92 0
-97 -96 0
92 96 97 0
-98 -90 0
-98 -97 0
90 97 98 0
-99 -48 0
-99 30 0
48 -30 99 0
100 -20 0
100 -46 0
20 46 -100 0
-3 -100 -101 0
3 100 -101 0
-3 100 101 0
3 -100 101 0
-101 6 -102 0
101 -6 -102 0
-101 -6 102 0
101 6 102 0
-46 -11 -103 0
46 11 -103 0
-46 11 103 0
46 -11 103 0
-104 -103 0
-104 28 0
103 -28 104 0
105 1 0
105 104 0
-1 -104 -105 0
102 -105 -106 0
-102 105 -106 0
102 105 106 0
-102 -105 106 0
-107 -99 0
-107 106 0
99 -106 107 0
-98 107 -108 0
98 -107 -108 0
-98 -107 108 0
98 107 108 0
109 -1 0
109 -84 0
1 84 -109 0
-1 35 -110 0
1 -35 -110 0
-1 -35 110 0
1 35 110 0
-111 110 0
-111 46 0
-110 -46 111 0
-112 -60 0
-112 111 0
60 -111 112 0
109 -112 -113 0
-109 112 -113 0
109 112 113 0
-109 -112 113 0
-114 -91 0
-114 21 0
91 -21 114 0
113 114 -115 0
-113 -114 -115 0
113 -114 115 0
-113 114 115 0
116 -115 0
116 -3 0
115 3 -116 0
-7 116 -117 0
7 -116 -117 0
-7 -116 117 0
7 116 117 0
118 -108 0
118 -117 0
108 117 -118 0
110 -69 -119 0
-110 69 -119 0
110 69 119 0
-110 -69 119 0
-120 66 0
-120 -65 0
-66 65 120 0
-121 -42 0
-121 -120 0
42 120 121 0
-122 -101 0
-122 -65 0
101 65 122 0
123 36 0
123 -49 0
-36 49 -123 0
-122 -123 -124 0
122 123 -124 0
-122 123 124 0
122 -123 124 0
-125 121 0
-125 124 0
-121 -124 125 0
-119 -125 -126 0
119 125 -126 0
-119 125 126 0
119 -125 126 0
-127 -34 0
-127 6 0
34 -6 127 0
-128 -17 0
-128 -120 0
17 120 128 0
129 10 0
129 -128 0
-10 128 -129 0
130 -129 0
130 79 0
129 -79 -130 0
-127 130 -131 0
127 -130 -131 0
-127 -130 131 0
127 130 131 0
-132 -126 0
-132 -131 0
126 131 132 0
-133 -118 0
-133 -132 0
118 132 133 0
85 133 -134 0
-85 -133 -134 0
85 -133 134 0
-85 133 134 0
83 134 -135 0
-83 -134 -135 0
83 -134 135 0
-83 134 135 0
96 -84 34 11 -132 0
-22 -114 -32 -80 -63 0
51 59 0
98 28 -97 111 -34 0
99 -25 109 1 61 -10 0
91 -107 -19 -127 -67 -87 0
60 134 114 82 127 -100 0
83 -74 127 -25 0
-33 90 0
-95 -124 68 -116 10 -65 0
84 41 0
64 -21 116 5 -100 -123 0
-131 37 -19 -18 43 0
90 -56 0
-59 94 -90 0
12 -66 -73 41 -59 -57 0
-102 -74 -89 0
14 -110 -111 -84 0
11 13 117 9 0
40 99 115 -80 0
51 -29 52 89 0
-61 -89 -59 -58 -3 36 0
21 120 -44 0
97 -64 54 99 121 -40 0
-29 38 135 -113 53 -127 0
121 -64 133 0
-14 127 -135 -58 133 2 0
84 133 -120 0
109 22 53 123 -60 106 0
-23 -93 0
124 -31 -117 -109 131 134 0
-17 -36 -64 0
87 90 53 0
43 35 -13 55 -97 0
50 85 -67 32 6 0
-72 0
-81 112 -15 44 34 28 0
119 -104 71 -129 109 0
-38 27 36 0
115 -38 20 0
-128 120 -25 -41 0
17 -58 89 -21 -50 86 0
-17 114 -53 76 0
-115 91 119 -66 -33 0
-125 103 -69 129 77 -12 0
73 59 -117 114 -52 135 0
41 11 0
-49 -127 16 84 0
-123 93 -113 19 -71 0
128 -133 50 55 93 0
104 87 -67 -111 -92 0
-7 113 -87 82 0
-103 80 0
52 97 -2 46 0
2 90 -36 104 94 63 0
-59 126 133 -51 -31 0
85 47 -3 0
35 62 -68 71 0
89 69 91 -51 -93 -49 0
78 92 119 -48 0
26 59 -105 0
135 0
